results_rootrelaxation/bin012_080_037.srr.sol
solution status: optimal solution found
objective value:                     16.5454545454545
_var740_                            0.272727272727271 	(obj:1)
_var742_                            0.818181818181818 	(obj:0)
_var763_                            0.181818181818181 	(obj:1)
_var768_                            0.272727272727273 	(obj:2)
_var771_                            0.181818181818183 	(obj:2)
_var796_                            0.181818181818182 	(obj:0)
_var817_                            0.454545454545454 	(obj:2)
_var829_                            0.181818181818183 	(obj:1)
_var833_                            0.181818181818182 	(obj:2)
_var837_                            0.272727272727272 	(obj:2)
_var848_                           0.0909090909090897 	(obj:3)
_var856_                            0.545454545454546 	(obj:0)
_var857_                            0.272727272727272 	(obj:0)
_var863_                            0.181818181818182 	(obj:1)
_var867_                            0.181818181818181 	(obj:0)
_var869_                           0.0909090909090911 	(obj:3)
_var870_                           0.0909090909090929 	(obj:2)
_var881_                            0.181818181818183 	(obj:2)
_var885_                            0.454545454545456 	(obj:2)
_var886_                            0.363636363636363 	(obj:2)
_var891_                           0.0909090909090907 	(obj:2)
_var892_                            0.181818181818181 	(obj:2)
_var898_                           0.0909090909090905 	(obj:1)
_var899_                            0.181818181818184 	(obj:2)
_var901_                             0.18181818181818 	(obj:2)
_var903_                            0.454545454545454 	(obj:0)
_var904_                           0.0909090909090915 	(obj:3)
_var915_                            0.272727272727272 	(obj:2)
_var916_                            0.181818181818182 	(obj:2)
_var918_                            0.181818181818181 	(obj:1)
_var919_                            0.363636363636361 	(obj:2)
_var927_                            0.181818181818182 	(obj:1)
_var928_                             0.18181818181818 	(obj:3)
_var929_                           0.0909090909090904 	(obj:3)
_var931_                            0.272727272727275 	(obj:2)
_var933_                           0.0909090909090899 	(obj:3)
_var934_                            0.181818181818182 	(obj:2)
_var938_                            0.181818181818182 	(obj:3)
_var940_                            0.181818181818183 	(obj:1)
_var941_                             0.09090909090909 	(obj:3)
_var942_                            0.181818181818182 	(obj:2)
_var943_                            0.181818181818181 	(obj:2)
_var947_                            0.272727272727273 	(obj:2)
_var949_                            0.181818181818183 	(obj:3)
_var951_                            0.272727272727274 	(obj:2)
_var955_                           0.0909090909090893 	(obj:2)
_var958_                            0.181818181818183 	(obj:1)
_var960_                            0.181818181818182 	(obj:3)
_var963_                             0.18181818181818 	(obj:2)
_var964_                           0.0909090909090915 	(obj:0)
