results_rootrelaxation/bin012_080_037.srr.log
SCIP version 8.0.3.5 [precision: 8 byte] [memory: block] [mode: optimized] [LP solver: Soplex 6.0.1.3] [GitHash: 438792519e]
Copyright (c) 2002-2023 Zuse Institute Berlin (ZIB)

External libraries: 
  Readline 8.1         GNU library for command line editing (gnu.org/s/readline)
  Soplex 6.0.1.3       Linear Programming Solver developed at Zuse Institute Berlin (soplex.zib.de) [GitHash: 713be0fe]
  CppAD 20180000.0     Algorithmic Differentiation of C++ algorithms developed by B. Bell (github.com/coin-or/CppAD)
  ZLIB 1.2.11          General purpose compression library by J. Gailly and M. Adler (zlib.net)
  bliss 0.77           Computing Graph Automorphism Groups by T. Junttila and P. Kaski (www.tcs.hut.fi/Software/bliss/)

user parameter file <scip.set> not found - using default parameters

srr/relaxation = TRUE

read problem <instances/bin012_080_037.srr>
============

Original problem: 
original problem has 0 variables (0 bin, 0 int, 0 impl, 0 cont) and 77 constraints

presolving:
presolving (1 rounds: 1 fast, 1 medium, 1 exhaustive):
 0 deleted vars, 0 deleted constraints, 0 added constraints, 0 tightened bounds, 0 added holes, 0 changed sides, 0 changed coefficients
 0 implications, 0 cliques
presolved problem has 0 variables (0 bin, 0 int, 0 impl, 0 cont) and 77 constraints
     77 constraints of type <linear>
Presolving Time: 0.00

 time | node  | left  |LP iter|LP it/n|mem/heur|mdpt |vars |cons |rows |cuts |sepa|confs|strbr|  dualbound   | primalbound  |  gap   | compl. 
  0.0s|     1 |     0 |     1 |     - |   710k |   0 |   1 |  77 |  77 |   0 |  0 |   0 |   0 |      --      |      --      |    Inf | unknown
r 0.1s|     1 |     0 |  1371 |     - |simplero|   0 | 730 |  77 |  77 |   0 |  0 |   0 |   0 |      --      | 3.576204e+01 |    Inf | unknown
r 0.1s|     1 |     0 |  1423 |     - |simplero|   0 | 741 |  77 |  77 |   0 |  0 |   0 |   0 |      --      | 3.318744e+01 |    Inf | unknown
r 0.1s|     1 |     0 |  1476 |     - |simplero|   0 | 752 |  77 |  77 |   0 |  0 |   0 |   0 |      --      | 3.107406e+01 |    Inf | unknown
r 0.1s|     1 |     0 |  1524 |     - |simplero|   0 | 763 |  77 |  77 |   0 |  0 |   0 |   0 |      --      | 2.998302e+01 |    Inf | unknown
r 0.1s|     1 |     0 |  1535 |     - |simplero|   0 | 763 |  77 |  77 |   0 |  0 |   0 |   0 |      --      | 2.969385e+01 |    Inf | unknown
r 0.1s|     1 |     0 |  1536 |     - |simplero|   0 | 763 |  77 |  77 |   0 |  0 |   0 |   0 |      --      | 2.969230e+01 |    Inf | unknown
r 0.1s|     1 |     0 |  1594 |     - |simplero|   0 | 774 |  77 |  77 |   0 |  0 |   0 |   0 |      --      | 2.608938e+01 |    Inf | unknown
r 0.1s|     1 |     0 |  1599 |     - |simplero|   0 | 774 |  77 |  77 |   0 |  0 |   0 |   0 |      --      | 2.606657e+01 |    Inf | unknown
r 0.1s|     1 |     0 |  1634 |     - |simplero|   0 | 785 |  77 |  77 |   0 |  0 |   0 |   0 |      --      | 2.488811e+01 |    Inf | unknown
r 0.1s|     1 |     0 |  1649 |     - |simplero|   0 | 785 |  77 |  77 |   0 |  0 |   0 |   0 |      --      | 2.481714e+01 |    Inf | unknown
r 0.1s|     1 |     0 |  1658 |     - |simplero|   0 | 785 |  77 |  77 |   0 |  0 |   0 |   0 |      --      | 2.481356e+01 |    Inf | unknown
r 0.1s|     1 |     0 |  1709 |     - |simplero|   0 | 796 |  77 |  77 |   0 |  0 |   0 |   0 |      --      | 2.352667e+01 |    Inf | unknown
r 0.1s|     1 |     0 |  1729 |     - |simplero|   0 | 796 |  77 |  77 |   0 |  0 |   0 |   0 |      --      | 2.331749e+01 |    Inf | unknown
r 0.1s|     1 |     0 |  1741 |     - |simplero|   0 | 796 |  77 |  77 |   0 |  0 |   0 |   0 |      --      | 2.328113e+01 |    Inf | unknown
 time | node  | left  |LP iter|LP it/n|mem/heur|mdpt |vars |cons |rows |cuts |sepa|confs|strbr|  dualbound   | primalbound  |  gap   | compl. 
r 0.1s|     1 |     0 |  1746 |     - |simplero|   0 | 796 |  77 |  77 |   0 |  0 |   0 |   0 |      --      | 2.327973e+01 |    Inf | unknown
r 0.1s|     1 |     0 |  1781 |     - |simplero|   0 | 807 |  77 |  77 |   0 |  0 |   0 |   0 |      --      | 2.275255e+01 |    Inf | unknown
r 0.1s|     1 |     0 |  1805 |     - |simplero|   0 | 807 |  77 |  77 |   0 |  0 |   0 |   0 |      --      | 2.267418e+01 |    Inf | unknown
r 0.1s|     1 |     0 |  1829 |     - |simplero|   0 | 818 |  77 |  77 |   0 |  0 |   0 |   0 |      --      | 2.163868e+01 |    Inf | unknown
r 0.1s|     1 |     0 |  1847 |     - |simplero|   0 | 818 |  77 |  77 |   0 |  0 |   0 |   0 |      --      | 2.137582e+01 |    Inf | unknown
r 0.1s|     1 |     0 |  1872 |     - |simplero|   0 | 829 |  77 |  77 |   0 |  0 |   0 |   0 |      --      | 2.078993e+01 |    Inf | unknown
r 0.1s|     1 |     0 |  1880 |     - |simplero|   0 | 829 |  77 |  77 |   0 |  0 |   0 |   0 |      --      | 2.075731e+01 |    Inf | unknown
r 0.1s|     1 |     0 |  1907 |     - |simplero|   0 | 840 |  77 |  77 |   0 |  0 |   0 |   0 |      --      | 2.017992e+01 |    Inf | unknown
r 0.1s|     1 |     0 |  1921 |     - |simplero|   0 | 840 |  77 |  77 |   0 |  0 |   0 |   0 |      --      | 2.003443e+01 |    Inf | unknown
r 0.1s|     1 |     0 |  1923 |     - |simplero|   0 | 840 |  77 |  77 |   0 |  0 |   0 |   0 |      --      | 2.003424e+01 |    Inf | unknown
  0.1s|     1 |     0 |  1956 |     - |  4118k |   0 | 851 |  77 |  77 |   0 |  0 |   0 |   0 |      --      | 2.003424e+01 |    Inf | unknown
r 0.1s|     1 |     0 |  1956 |     - |simplero|   0 | 851 |  77 |  77 |   0 |  0 |   0 |   0 |      --      | 1.957051e+01 |    Inf | unknown
r 0.1s|     1 |     0 |  1993 |     - |simplero|   0 | 862 |  77 |  77 |   0 |  0 |   0 |   0 |      --      | 1.905390e+01 |    Inf | unknown
r 0.1s|     1 |     0 |  2003 |     - |simplero|   0 | 862 |  77 |  77 |   0 |  0 |   0 |   0 |      --      | 1.900935e+01 |    Inf | unknown
r 0.1s|     1 |     0 |  2006 |     - |simplero|   0 | 862 |  77 |  77 |   0 |  0 |   0 |   0 |      --      | 1.900730e+01 |    Inf | unknown
 time | node  | left  |LP iter|LP it/n|mem/heur|mdpt |vars |cons |rows |cuts |sepa|confs|strbr|  dualbound   | primalbound  |  gap   | compl. 
r 0.1s|     1 |     0 |  2041 |     - |simplero|   0 | 873 |  77 |  77 |   0 |  0 |   0 |   0 |      --      | 1.851133e+01 |    Inf | unknown
r 0.1s|     1 |     0 |  2045 |     - |simplero|   0 | 873 |  77 |  77 |   0 |  0 |   0 |   0 |      --      | 1.850451e+01 |    Inf | unknown
r 0.1s|     1 |     0 |  2065 |     - |simplero|   0 | 883 |  77 |  77 |   0 |  0 |   0 |   0 |      --      | 1.822988e+01 |    Inf | unknown
r 0.1s|     1 |     0 |  2068 |     - |simplero|   0 | 883 |  77 |  77 |   0 |  0 |   0 |   0 |      --      | 1.822843e+01 |    Inf | unknown
r 0.1s|     1 |     0 |  2109 |     - |simplero|   0 | 894 |  77 |  77 |   0 |  0 |   0 |   0 |      --      | 1.758992e+01 |    Inf | unknown
r 0.1s|     1 |     0 |  2115 |     - |simplero|   0 | 894 |  77 |  77 |   0 |  0 |   0 |   0 |      --      | 1.756629e+01 |    Inf | unknown
r 0.1s|     1 |     0 |  2117 |     - |simplero|   0 | 894 |  77 |  77 |   0 |  0 |   0 |   0 |      --      | 1.756582e+01 |    Inf | unknown
r 0.1s|     1 |     0 |  2139 |     - |simplero|   0 | 903 |  77 |  77 |   0 |  0 |   0 |   0 |      --      | 1.732270e+01 |    Inf | unknown
r 0.1s|     1 |     0 |  2148 |     - |simplero|   0 | 903 |  77 |  77 |   0 |  0 |   0 |   0 |      --      | 1.731227e+01 |    Inf | unknown
r 0.1s|     1 |     0 |  2165 |     - |simplero|   0 | 913 |  77 |  77 |   0 |  0 |   0 |   0 |      --      | 1.721609e+01 |    Inf | unknown
r 0.1s|     1 |     0 |  2192 |     - |simplero|   0 | 923 |  77 |  77 |   0 |  0 |   0 |   0 |      --      | 1.698090e+01 |    Inf | unknown
r 0.1s|     1 |     0 |  2198 |     - |simplero|   0 | 923 |  77 |  77 |   0 |  0 |   0 |   0 |      --      | 1.696908e+01 |    Inf | unknown
r 0.1s|     1 |     0 |  2215 |     - |simplero|   0 | 932 |  77 |  77 |   0 |  0 |   0 |   0 |      --      | 1.692372e+01 |    Inf | unknown
r 0.1s|     1 |     0 |  2225 |     - |simplero|   0 | 932 |  77 |  77 |   0 |  0 |   0 |   0 |      --      | 1.689939e+01 |    Inf | unknown
r 0.1s|     1 |     0 |  2244 |     - |simplero|   0 | 941 |  77 |  77 |   0 |  0 |   0 |   0 |      --      | 1.676428e+01 |    Inf | unknown
 time | node  | left  |LP iter|LP it/n|mem/heur|mdpt |vars |cons |rows |cuts |sepa|confs|strbr|  dualbound   | primalbound  |  gap   | compl. 
r 0.1s|     1 |     0 |  2266 |     - |simplero|   0 | 949 |  77 |  77 |   0 |  0 |   0 |   0 |      --      | 1.669320e+01 |    Inf | unknown
r 0.1s|     1 |     0 |  2294 |     - |simplero|   0 | 955 |  77 |  77 |   0 |  0 |   0 |   0 |      --      | 1.658262e+01 |    Inf | unknown
r 0.1s|     1 |     0 |  2300 |     - |simplero|   0 | 955 |  77 |  77 |   0 |  0 |   0 |   0 |      --      | 1.658007e+01 |    Inf | unknown
r 0.1s|     1 |     0 |  2320 |     - |simplero|   0 | 962 |  77 |  77 |   0 |  0 |   0 |   0 |      --      | 1.656000e+01 |    Inf | unknown
r 0.1s|     1 |     0 |  2327 |     - |simplero|   0 | 962 |  77 |  77 |   0 |  0 |   0 |   0 |      --      | 1.655814e+01 |    Inf | unknown
r 0.1s|     1 |     0 |  2338 |     - |simplero|   0 | 967 |  77 |  77 |   0 |  0 |   0 |   0 |      --      | 1.654545e+01 |    Inf | unknown
  0.1s|     1 |     0 |  2341 |     - |  4747k |   0 | 969 |  77 |  77 |   0 |  0 |   0 |   0 | 1.654545e+01 | 1.654545e+01 |   0.00%| unknown
  0.1s|     1 |     0 |  2341 |     - |  4747k |   0 | 969 |  77 |  77 |   0 |  0 |   0 |   0 | 1.654545e+01 | 1.654545e+01 |   0.00%| unknown

SCIP Status        : problem is solved [optimal solution found]
Solving Time (sec) : 0.11
Solving Nodes      : 1
Primal Bound       : +1.65454545454545e+01 (49 solutions)
Dual Bound         : +1.65454545454545e+01
Gap                : 0.00 %

written transformed problem to file <results_rootrelaxation/bin012_080_037.srr.lp>
written transformed problem to file <results_rootrelaxation/bin012_080_037.srr.cip>

written solution information to file <results_rootrelaxation/bin012_080_037.srr.sol>



